tag,file,LongParameterList,LongMethod,LongScopeChaining,LongBaseClassList,LargeClass,LongMessageChain,ComplexLambdaExpression,LongTernaryConditionalExpression,ComplexContainerComprehension,MultiplyNestedContainer,LOC,change,fault
v0.13.0,scipy/sparse/sputils.py,0,0,0,0,0,0,0,0,0,0,146,11,0
v0.13.0,doc/source/tutorial/examples/newton_krylov_preconditioning.py,0,0,0,0,0,0,0,0,0,0,60,0,0
v0.13.0,scipy/sparse/linalg/isolve/tests/test_iterative.py,0,1,0,0,0,0,0,0,0,0,240,2,0
v0.13.0,tools/win32/build_scripts/pavement.py,0,0,0,0,0,0,0,0,0,0,209,0,0
v0.13.0,scipy/sparse/csgraph/tests/test_shortest_path.py,0,0,0,0,0,0,0,0,0,0,125,1,0
v0.13.0,scipy/interpolate/fitpack.py,1,3,0,0,0,0,0,0,0,0,477,5,1
v0.13.0,scipy/sparse/linalg/tests/test_expm_multiply.py,0,0,0,0,0,0,0,0,0,0,197,0,0
v0.13.0,scipy/interpolate/interpolate_wrapper.py,0,0,0,0,0,0,0,0,0,0,73,1,0
v0.13.0,scipy/integrate/odepack.py,0,0,0,0,0,0,0,0,0,0,37,1,0
v0.13.0,scipy/stats/mstats_extras.py,0,0,0,0,0,0,0,0,1,0,185,0,0
v0.13.0,scipy/sparse/benchmarks/bench_sparse.py,0,0,0,0,0,0,0,0,0,0,220,3,0
v0.13.0,scipy/weave/standard_array_spec.py,0,0,0,0,0,0,0,0,0,0,73,0,0
v0.13.0,scipy/sparse/linalg/dsolve/umfpack/setup.py,0,0,0,0,0,0,0,0,0,0,24,1,1
v0.13.0,scipy/io/matlab/tests/test_byteordercodes.py,0,0,0,0,0,0,0,0,0,0,23,0,0
v0.13.0,scipy/stats/rv.py,0,0,0,0,0,0,0,0,0,0,19,3,0
v0.13.0,scipy/sparse/linalg/isolve/tests/test_utils.py,0,0,0,0,0,0,0,0,0,0,6,0,0
v0.13.0,scipy/sparse/spfuncs.py,0,0,0,0,0,0,0,0,0,0,51,1,0
v0.13.0,scipy/spatial/distance.py,0,2,0,0,0,0,0,0,0,0,754,3,0
v0.13.0,scipy/weave/tests/test_c_spec.py,0,0,0,0,0,0,0,0,0,0,514,6,0
v0.13.0,scipy/sparse/linalg/tests/test_onenormest.py,0,0,0,0,0,0,0,0,0,0,183,0,0
v0.13.0,scipy/integrate/tests/test_quadpack.py,4,0,0,0,0,0,0,0,0,0,210,2,0
v0.13.0,scipy/ndimage/fourier.py,0,0,0,0,0,0,0,0,0,0,82,0,0
v0.13.0,scipy/sparse/linalg/tests/test_interface.py,0,1,0,0,0,0,0,0,0,0,149,2,0
v0.13.0,scipy/sparse/csgraph/tests/test_traversal.py,0,0,0,0,0,0,0,0,0,0,36,0,0
v0.13.0,scipy/weave/vtk_spec.py,0,0,0,0,0,0,0,0,0,0,55,0,0
v0.13.0,scipy/setup.py,0,0,0,0,0,0,0,0,0,0,30,0,0
v0.13.0,scipy/ndimage/__init__.py,0,0,0,0,0,0,0,0,0,0,12,0,0
v0.13.0,scipy/stats/stats.py,1,0,0,0,0,0,0,0,0,0,1106,21,5
v0.13.0,scipy/linalg/flinalg.py,0,0,0,0,0,0,0,0,0,0,32,0,0
v0.13.0,tools/authors.py,0,0,0,0,0,0,0,0,0,0,176,3,0
v0.13.0,scipy/integrate/tests/test_integrate.py,0,0,0,0,0,0,0,0,0,0,379,5,0
v0.13.0,scipy/signal/tests/test_wavelets.py,0,0,0,0,0,0,0,0,0,0,98,0,0
v0.13.0,scipy/lib/_util.py,0,0,0,0,0,0,0,0,0,0,16,0,0
v0.13.0,scipy/lib/setup.py,0,0,0,0,0,0,0,0,0,0,11,0,0
v0.13.0,scipy/ndimage/tests/test_filters.py,0,0,0,0,0,0,0,0,0,0,38,0,0
v0.13.0,scipy/weave/examples/tuple_return.py,0,0,0,0,0,0,0,0,0,0,31,0,0
v0.13.0,scipy/io/harwell_boeing/hb.py,1,2,0,0,0,0,0,0,0,0,330,2,0
v0.13.0,scipy/io/mmio.py,0,2,0,0,1,0,0,0,0,0,398,3,1
v0.13.0,scipy/io/_fortran.py,0,0,0,0,0,0,0,0,0,0,53,0,0
v0.13.0,scipy/weave/size_check.py,0,1,0,0,0,0,0,0,0,0,227,1,0
v0.13.0,scipy/lib/lapack/scons_support.py,0,0,0,0,0,0,0,0,0,0,20,0,0
v0.13.0,scipy/stats/tests/test_continuous_basic.py,4,0,0,0,0,0,0,0,0,0,313,15,1
v0.13.0,scipy/optimize/nonlin.py,7,1,0,0,0,0,0,0,0,0,703,1,0
v0.13.0,scipy/stats/tests/test_rank.py,0,0,0,0,0,0,0,0,0,0,149,0,0
v0.13.0,scipy/ndimage/interpolation.py,0,1,0,0,0,0,0,0,0,0,270,0,0
v0.13.0,scipy/weave/examples/swig2_example.py,0,0,0,0,0,0,0,0,0,0,17,0,0
v0.13.0,scipy/weave/tests/test_numpy_scalar_spec.py,0,0,0,0,0,0,0,0,0,0,113,5,0
v0.13.0,runtests.py,0,1,0,0,0,0,0,0,0,0,177,5,0
v0.13.0,scipy/sparse/linalg/eigen/lobpcg/tests/test_lobpcg.py,0,0,0,0,0,0,0,0,0,0,54,3,0
v0.13.0,scipy/stats/vonmises.py,0,0,0,0,0,0,0,0,0,0,35,1,0
v0.13.0,scipy/io/harwell_boeing/setup.py,0,0,0,0,0,0,0,0,0,0,9,0,0
v0.13.0,scipy/sparse/tests/test_extract.py,0,0,0,0,0,0,0,0,0,0,36,1,0
v0.13.0,scipy/lib/tests/test__gcutils.py,0,0,0,0,0,0,0,0,0,0,60,0,0
v0.13.0,scipy/sparse/linalg/isolve/tests/demo_lgmres.py,0,0,0,0,0,0,0,0,0,0,46,0,0
v0.13.0,scipy/linalg/decomp.py,1,2,0,0,0,0,0,0,0,0,313,5,1
v0.13.0,scipy/odr/tests/test_odr.py,0,1,0,0,0,0,0,0,0,0,251,0,0
v0.13.0,scipy/weave/tests/test_ast_tools.py,0,0,0,0,0,0,0,0,0,0,18,1,0
v0.13.0,scipy/special/orthogonal.py,0,0,0,0,0,0,4,0,0,0,397,1,0
v0.13.0,doc/source/tutorial/examples/normdiscr_plot2.py,0,0,0,0,0,0,0,0,0,0,41,0,0
v0.13.0,scipy/optimize/tests/test_regression.py,0,0,0,0,0,0,0,0,0,0,30,0,0
v0.13.0,scipy/sparse/linalg/dsolve/linsolve.py,0,1,0,0,0,0,0,0,0,0,133,7,1
v0.13.0,scipy/optimize/tests/test__root.py,0,0,0,0,0,0,0,0,0,0,27,0,0
v0.13.0,scipy/sparse/csgraph/_validation.py,0,0,0,0,0,0,0,0,0,0,42,0,0
v0.13.0,scipy/linalg/flapack.py,0,0,0,0,0,0,0,0,0,0,7,0,0
v0.13.0,scipy/sparse/csgraph/setup.py,0,0,0,0,0,0,0,0,0,0,21,0,0
v0.13.0,scipy/sparse/compressed.py,1,0,0,1,1,0,0,0,0,0,596,32,1
v0.13.0,scipy/sparse/csgraph/__init__.py,0,0,0,0,0,0,0,0,0,0,34,0,0
v0.13.0,scipy/sparse/base.py,0,0,0,0,1,0,0,0,0,0,386,12,1
v0.13.0,scipy/signal/tests/test_signaltools.py,0,0,0,0,0,0,0,0,0,0,620,5,0
v0.13.0,scipy/optimize/anneal.py,0,1,0,0,0,0,0,0,0,0,241,4,1
v0.13.0,scipy/signal/filter_design.py,1,4,0,0,0,0,0,0,0,0,1056,34,0
v0.13.0,scipy/stats/tests/test_mstats_basic.py,0,0,0,0,0,0,0,0,0,0,417,28,4
v0.13.0,scipy/integrate/setup.py,0,0,0,0,0,0,0,0,0,0,59,0,0
v0.13.0,scipy/sparse/linalg/dsolve/umfpack/tests/test_umfpack.py,0,0,0,0,0,0,0,0,0,0,139,2,1
v0.13.0,scipy/lib/blas/__init__.py,0,0,0,0,0,0,0,0,0,0,60,0,0
v0.13.0,scipy/special/utils/datafunc.py,0,0,0,0,0,0,0,0,0,0,43,0,0
v0.13.0,scipy/sparse/construct.py,0,0,0,0,0,0,0,0,0,0,215,17,0
v0.13.0,scipy/special/utils/convert.py,0,0,0,0,0,0,0,0,0,0,160,0,0
v0.13.0,scipy/weave/bytecodecompiler.py,0,1,0,0,2,0,0,0,0,0,951,0,0
v0.13.0,scipy/stats/_binned_statistic.py,0,1,0,0,0,0,0,0,0,0,132,2,1
v0.13.0,scipy/fftpack/benchmarks/bench_basic.py,0,0,0,0,0,0,0,0,0,0,174,0,0
v0.13.0,scipy/weave/tests/weave_test_utils.py,0,0,0,0,0,0,0,0,0,0,102,6,1
v0.13.0,scipy/io/tests/test_netcdf.py,0,0,0,0,0,0,0,0,0,0,141,4,1
v0.13.0,scipy/sparse/linalg/eigen/setup.py,0,0,0,0,0,0,0,0,0,0,10,0,0
v0.13.0,scipy/weave/blitz_tools.py,0,0,0,0,0,0,0,0,0,0,69,2,0
v0.13.0,scipy/sparse/linalg/_expm_multiply.py,4,1,0,0,0,0,0,0,0,0,321,0,0
v0.13.0,scipy/weave/tests/test_inline_tools.py,0,0,0,0,0,0,0,0,0,0,15,1,0
v0.13.0,scipy/fftpack/basic.py,3,0,0,0,0,0,0,0,0,0,215,2,0
v0.13.0,scipy/linalg/tests/test_basic.py,0,0,0,0,0,0,0,0,0,0,551,1,0
v0.13.0,scipy/signal/bsplines.py,0,0,0,0,0,0,0,0,0,0,227,0,0
v0.13.0,scipy/optimize/tests/test_zeros.py,0,0,0,0,0,0,0,0,0,0,43,0,0
v0.13.0,scipy/weave/tests/test_scxx_dict.py,0,0,0,0,0,0,0,0,0,0,240,1,0
v0.13.0,scipy/optimize/tests/test_nnls.py,0,0,0,0,0,0,0,0,0,0,16,0,0
v0.13.0,scipy/sparse/linalg/tests/test_matfuncs.py,0,0,0,0,0,0,0,0,0,0,143,2,0
v0.13.0,scipy/special/tests/test_data.py,0,1,0,0,0,0,0,0,0,0,155,1,0
v0.13.0,scipy/linalg/decomp_svd.py,0,0,0,0,0,0,0,0,0,0,53,0,0
v0.13.0,scipy/optimize/tnc/example.py,0,0,0,0,0,0,0,0,0,0,14,0,0
v0.13.0,scipy/sparse/tests/test_csc.py,0,0,0,0,0,0,0,0,0,0,28,0,0
v0.13.0,scipy/ndimage/_ni_support.py,0,0,0,0,0,0,0,0,0,0,48,0,0
v0.13.0,scipy/weave/slice_handler.py,0,0,0,0,0,0,0,0,0,1,83,1,0
v0.13.0,scipy/signal/dltisys.py,0,0,0,0,0,0,0,0,0,0,100,0,0
v0.13.0,scipy/io/matlab/mio.py,0,0,0,0,0,0,0,0,0,0,88,3,0
v0.13.0,scipy/interpolate/interpolate.py,8,1,0,0,0,0,0,0,0,0,459,27,1
v0.13.0,scipy/lib/blas/tests/test_fblas.py,0,0,0,0,0,0,0,0,0,0,357,1,0
v0.13.0,scipy/weave/ext_tools.py,0,0,0,0,0,0,0,0,0,0,312,1,0
v0.13.0,scipy/stats/tests/test_continuous_extra.py,0,0,0,0,0,0,0,0,0,0,78,6,0
v0.13.0,scipy/sparse/__init__.py,0,0,0,0,0,0,0,0,0,0,17,2,0
v0.13.0,scipy/optimize/_basinhopping.py,1,0,0,0,0,0,0,0,0,0,243,3,1
v0.13.0,scipy/integrate/quadpack.py,6,0,0,0,0,0,0,0,0,0,183,2,0
v0.13.0,scipy/ndimage/utils/generate_label_testvectors.py,0,0,0,0,0,0,0,0,1,0,40,0,0
v0.13.0,scipy/stats/__init__.py,0,0,0,0,0,0,0,0,0,0,13,5,0
v0.13.0,scipy/interpolate/tests/test_interpolate.py,0,0,0,0,0,0,0,0,0,0,280,25,0
v0.13.0,scipy/sparse/csr.py,0,0,0,0,0,0,0,0,1,0,220,14,0
v0.13.0,scipy/weave/examples/print_example.py,0,0,0,0,0,0,0,0,0,0,34,0,0
v0.13.0,scipy/sparse/tests/test_spfuncs.py,0,0,0,0,0,0,0,0,0,0,81,1,0
v0.13.0,scipy/sparse/linalg/eigen/__init__.py,0,0,0,0,0,0,0,0,0,0,8,0,0
v0.13.0,scipy/weave/tests/test_ext_tools.py,0,0,0,0,0,0,0,0,0,0,103,2,0
v0.13.0,scipy/stats/tests/test_tukeylambda_stats.py,0,0,0,0,0,0,0,0,0,0,59,0,0
v0.13.0,scipy/optimize/zeros.py,1,0,0,0,0,0,0,0,0,0,127,1,0
v0.13.0,scipy/special/basic.py,1,0,0,0,0,0,0,0,0,0,578,15,0
v0.13.0,scipy/io/tests/test_wavfile.py,0,0,0,0,0,0,0,0,0,0,79,0,0
v0.13.0,scipy/stats/distributions.py,14,3,0,0,1,0,0,0,0,0,3695,16,2
v0.13.0,scipy/interpolate/tests/test_rbf.py,0,0,0,0,0,0,0,0,0,0,102,1,0
v0.13.0,scipy/sparse/linalg/benchmarks/bench_expm_multiply.py,0,0,0,0,0,0,0,0,0,0,67,0,0
v0.13.0,scipy/ndimage/tests/test_ndimage.py,2,0,0,0,1,0,0,0,0,0,4016,0,0
v0.13.0,scipy/fftpack/tests/test_basic.py,3,1,0,0,0,0,0,0,0,0,645,1,0
v0.13.0,scipy/integrate/_ode.py,6,2,0,0,0,0,0,0,0,0,608,4,0
v0.13.0,scipy/weave/examples/functional.py,0,0,0,0,0,0,0,0,0,0,50,0,0
v0.13.0,scipy/misc/tests/test_doccer.py,0,0,0,0,0,0,0,0,0,0,67,0,0
v0.13.0,scipy/sparse/sparsetools/csc.py,0,0,0,0,0,0,0,0,0,0,97,3,0
v0.13.0,tools/osx/build.py,0,0,0,0,0,0,0,0,0,0,52,0,0
v0.13.0,scipy/integrate/tests/test_quadrature.py,1,0,0,0,0,0,0,0,0,0,113,3,0
v0.13.0,scipy/linalg/setup.py,0,1,0,0,0,0,0,0,0,0,99,1,0
v0.13.0,scipy/io/matlab/benchmarks/bench_memusage.py,0,0,0,0,0,0,0,0,0,0,100,0,0
v0.13.0,scipy/io/arff/arffread.py,0,0,0,0,0,0,0,0,0,0,302,2,0
v0.13.0,scipy/io/__init__.py,0,0,0,0,0,0,0,0,0,0,11,0,0
v0.13.0,scipy/sparse/linalg/dsolve/__init__.py,0,0,0,0,0,0,0,0,0,0,6,1,0
v0.13.0,scipy/optimize/__init__.py,0,0,0,0,0,0,0,0,0,0,19,7,1
v0.13.0,scipy/optimize/_minimize.py,0,1,0,0,0,0,0,0,0,0,114,11,1
v0.13.0,scipy/spatial/tests/test_kdtree.py,0,0,0,0,0,0,0,0,0,0,544,0,0
v0.13.0,scipy/sparse/linalg/isolve/minres.py,0,1,0,0,0,0,0,0,0,0,223,0,0
v0.13.0,scipy/cluster/vq.py,1,0,0,0,0,0,0,0,0,0,201,4,1
v0.13.0,scipy/stats/tests/test_binned_statistic.py,0,0,0,0,0,0,0,0,0,0,159,2,1
v0.13.0,scipy/linalg/_decomp_qz.py,0,1,0,0,0,0,0,0,0,0,96,1,0
v0.13.0,scipy/lib/__init__.py,0,0,0,0,0,0,0,0,0,0,5,0,0
v0.13.0,scipy/sparse/tests/test_base.py,0,0,0,0,1,0,0,0,0,0,2165,63,3
v0.13.0,scipy/weave/inline_tools.py,1,0,0,0,0,0,0,0,0,0,230,2,1
v0.13.0,scipy/stats/mstats.py,0,0,0,0,0,0,0,0,0,0,4,1,1
v0.13.0,scipy/odr/setup.py,0,0,0,0,0,0,0,0,0,0,31,0,0
v0.13.0,scipy/misc/common.py,0,0,0,0,0,0,0,0,0,0,184,9,0
v0.13.0,doc/postprocess.py,0,0,0,0,0,0,0,0,0,0,38,0,0
v0.13.0,scipy/optimize/tests/test__basinhopping.py,0,0,0,0,0,0,0,0,0,0,257,2,0
v0.13.0,scipy/optimize/optimize.py,3,9,0,0,0,0,0,0,0,0,1258,9,1
v0.13.0,scipy/optimize/tests/test_trustregion.py,0,0,0,0,0,0,0,0,0,0,60,0,0
v0.13.0,scipy/special/tests/test_logit.py,0,0,0,0,0,0,0,0,0,0,58,7,0
v0.13.0,scipy/special/c_misc/struve_convergence.py,0,0,0,0,0,0,0,0,0,0,68,1,0
v0.13.0,scipy/cluster/doc/ex1.py,0,0,0,0,0,0,0,0,0,0,23,0,0
v0.13.0,scipy/cluster/tests/test_vq.py,0,0,0,0,0,0,0,0,0,0,135,1,1
v0.13.0,scipy/linalg/decomp_cholesky.py,0,0,0,0,0,0,0,0,0,0,84,0,0
v0.13.0,scipy/interpolate/setup.py,0,0,0,0,0,0,0,0,0,0,27,0,0
v0.13.0,scipy/weave/examples/md5_speed.py,0,0,0,0,0,0,0,0,0,0,55,0,0
v0.13.0,scipy/special/spfun_stats.py,0,0,0,0,0,0,0,0,0,0,16,0,0
v0.13.0,scipy/linalg/benchmarks/bench_basic.py,0,0,0,0,0,0,0,0,0,0,92,1,0
v0.13.0,scipy/interpolate/tests/test_interpolate_wrapper.py,0,0,0,0,0,0,0,0,0,0,56,0,0
v0.13.0,scipy/io/harwell_boeing/tests/test_hb.py,0,0,0,0,0,0,0,0,0,0,40,0,0
v0.13.0,scipy/ndimage/tests/test_measurements.py,0,0,0,0,0,0,0,0,0,0,946,5,0
v0.13.0,scipy/special/__init__.py,0,0,0,0,0,0,0,0,0,0,15,6,0
v0.13.0,scipy/sparse/linalg/isolve/tests/test_lsmr.py,0,0,0,0,0,0,0,0,0,0,101,1,1
v0.13.0,scipy/io/matlab/byteordercodes.py,0,0,0,0,0,0,0,0,0,0,25,0,0
v0.13.0,scipy/sparse/linalg/eigen/arpack/__init__.py,0,0,0,0,0,0,0,0,0,0,3,0,0
v0.13.0,scipy/linalg/cblas.py,0,0,0,0,0,0,0,0,0,0,10,0,0
v0.13.0,scipy/io/harwell_boeing/tests/test_fortran_format.py,0,0,0,0,0,0,0,0,0,0,53,0,0
v0.13.0,scipy/interpolate/tests/test_ndgriddata.py,0,0,0,0,0,0,0,0,0,0,71,2,0
v0.13.0,scipy/ndimage/io.py,0,0,0,0,0,0,0,0,0,0,17,2,0
v0.13.0,scipy/io/arff/tests/test_arffread.py,0,0,0,0,0,0,0,0,0,0,87,2,0
v0.13.0,scipy/weave/swigptr2.py,0,0,0,0,0,0,0,0,0,0,9,1,0
v0.13.0,scipy/io/matlab/tests/test_streams.py,0,0,0,0,0,0,0,0,0,0,134,1,0
v0.13.0,scipy/sparse/linalg/dsolve/setup.py,0,0,0,0,0,0,0,0,0,0,36,1,1
v0.13.0,scipy/spatial/_plotutils.py,0,0,0,0,0,0,0,0,0,0,67,0,0
v0.13.0,scipy/cluster/__init__.py,0,0,0,0,0,0,0,0,0,0,6,0,0
v0.13.0,scipy/optimize/_trustregion.py,0,1,0,0,0,0,0,0,0,0,152,1,1
v0.13.0,scipy/stats/tests/test_mstats_extras.py,0,0,0,0,0,0,0,0,0,0,77,0,0
v0.13.0,scipy/io/matlab/mio4.py,1,0,0,0,0,0,0,0,0,0,370,0,0
v0.13.0,scipy/io/netcdf.py,1,0,0,0,1,0,0,0,0,0,426,6,1
v0.13.0,scipy/sparse/data.py,0,0,0,0,0,0,0,0,0,0,75,14,1
v0.13.0,scipy/special/tests/test_orthogonal_eval.py,0,0,0,0,0,0,0,0,0,0,193,2,0
v0.13.0,scipy/sparse/linalg/eigen/lobpcg/tests/benchmark.py,0,0,0,0,0,0,0,0,0,0,55,1,0
v0.13.0,scipy/signal/tests/test_waveforms.py,0,0,0,0,0,0,0,0,0,0,263,3,0
v0.13.0,scipy/special/add_newdocs.py,0,0,0,0,0,0,0,0,0,0,428,7,0
v0.13.0,scipy/weave/accelerate_tools.py,0,0,0,0,0,0,0,0,0,0,282,2,1
v0.13.0,scipy/signal/tests/test_ltisys.py,0,0,0,0,0,0,0,0,0,0,282,2,0
v0.13.0,scipy/fftpack/helper.py,0,0,0,0,0,0,0,0,0,0,9,0,0
v0.13.0,scipy/sparse/csc.py,0,0,0,0,0,0,0,0,0,0,66,7,0
v0.13.0,scipy/weave/examples/ramp.py,0,0,0,0,0,0,0,0,0,0,76,0,0
v0.13.0,scipy/fftpack/tests/gendata.py,0,0,0,0,0,0,0,0,0,0,6,0,0
v0.13.0,doc/source/tutorial/examples/normdiscr_plot1.py,0,0,0,0,0,0,0,0,0,0,38,0,0
v0.13.0,scipy/signal/waveforms.py,0,0,0,0,0,0,0,0,0,0,113,2,0
v0.13.0,scipy/weave/setup.py,0,0,0,0,0,0,0,0,0,0,21,0,0
v0.13.0,scipy/optimize/benchmarks/bench_zeros.py,0,0,0,0,0,0,0,0,0,0,26,0,0
v0.13.0,scipy/io/matlab/tests/test_mio_utils.py,0,0,0,0,0,0,0,0,0,0,36,0,0
v0.13.0,scipy/signal/signaltools.py,0,0,0,0,0,0,0,0,0,0,595,15,0
v0.13.0,scipy/lib/lapack/tests/common.py,0,0,0,0,0,0,0,0,0,0,39,0,0
v0.13.0,scipy/sparse/csgraph/tests/test_connected_components.py,0,0,0,0,0,0,0,0,0,0,71,0,0
v0.13.0,doc/source/tutorial/stats/plots/kde_plot2.py,0,0,0,0,0,0,0,0,0,0,16,0,0
v0.13.0,scipy/signal/windows.py,0,1,0,0,0,0,0,0,0,0,363,6,0
v0.13.0,scipy/linalg/_interpolative_backend.py,6,0,0,0,0,0,0,0,0,0,342,0,0
v0.13.0,scipy/sparse/linalg/dsolve/umfpack/tests/try_umfpack.py,0,1,0,0,0,0,0,0,0,0,153,1,1
v0.13.0,scipy/io/idl.py,0,2,0,0,0,0,0,0,0,0,511,3,0
v0.13.0,scipy/io/matlab/mio5_params.py,0,0,0,0,0,0,0,0,0,0,174,0,0
v0.13.0,scipy/signal/spectral.py,0,1,0,0,0,0,0,0,0,0,117,2,0
v0.13.0,scipy/sparse/sparsetools/dia.py,0,0,0,0,0,0,0,0,0,0,55,2,0
v0.13.0,tools/cythonize.py,1,0,0,0,0,0,0,0,0,0,117,3,0
v0.13.0,scipy/fftpack/pseudo_diffs.py,0,0,0,0,0,0,0,0,0,0,240,0,0
v0.13.0,scipy/fftpack/tests/test_helper.py,0,0,0,0,0,0,0,0,0,0,41,1,0
v0.13.0,scipy/linalg/tests/test_special_matrices.py,0,1,0,0,0,0,0,0,0,0,401,1,0
v0.13.0,scipy/optimize/tests/test_slsqp.py,0,0,0,0,0,0,0,0,0,0,221,2,0
v0.13.0,scipy/signal/tests/test_cont2discrete.py,0,0,0,0,0,0,0,0,0,0,183,1,0
v0.13.0,scipy/io/harwell_boeing/_fortran_format_parser.py,0,0,0,0,0,0,0,0,0,0,181,0,0
v0.13.0,scipy/sparse/linalg/eigen/arpack/arpack.py,2,5,0,0,0,0,0,0,0,0,811,3,0
v0.13.0,scipy/io/wavfile.py,0,0,0,0,0,0,0,0,0,0,139,0,0
v0.13.0,scipy/sparse/csgraph/_laplacian.py,0,0,0,0,0,0,0,0,0,0,60,0,0
v0.13.0,scipy/linalg/linalg_version.py,0,0,0,0,0,0,0,0,0,0,5,0,0
v0.13.0,scipy/misc/doccer.py,0,0,0,0,0,0,0,0,0,0,71,1,0
v0.13.0,scipy/sparse/linalg/setup.py,0,0,0,0,0,0,0,0,0,0,13,0,0
v0.13.0,scipy/odr/add_newdocs.py,0,0,0,0,0,0,0,0,0,0,5,0,0
v0.13.0,scipy/signal/tests/test_peak_finding.py,1,0,0,0,0,0,0,0,0,0,179,0,0
v0.13.0,scipy/lib/lapack/tests/test_gesv.py,0,0,0,0,0,0,0,0,0,0,73,1,0
v0.13.0,scipy/sparse/linalg/eigen/lobpcg/lobpcg.py,0,1,0,0,0,0,0,0,0,0,323,4,0
v0.13.0,scipy/io/matlab/mio5.py,0,0,0,0,0,0,0,0,0,6,441,3,0
v0.13.0,doc/source/tutorial/stats/plots/kde_plot4.py,0,0,0,0,0,0,0,0,0,0,32,0,0
v0.13.0,scipy/io/tests/test_idl.py,0,0,0,0,0,12,0,0,0,0,297,2,0
v0.13.0,scipy/integrate/__init__.py,0,0,0,0,0,0,0,0,0,0,9,0,0
v0.13.0,scipy/sparse/linalg/eigen/lobpcg/tests/large_scale.py,0,0,0,0,0,0,0,0,0,0,39,1,0
v0.13.0,scipy/sparse/linalg/dsolve/tests/test_linsolve.py,0,0,0,0,0,0,0,0,0,0,146,8,0
v0.13.0,scipy/spatial/setup.py,0,0,0,0,0,0,0,0,0,0,38,0,0
v0.13.0,scipy/interpolate/fitpack2.py,3,0,0,0,0,0,0,0,0,0,405,5,0
v0.13.0,scipy/interpolate/__init__.py,0,0,0,0,0,0,0,0,0,0,12,9,1
v0.13.0,scipy/linalg/tests/test_blas.py,0,0,0,0,0,0,0,0,0,0,339,1,0
v0.13.0,scipy/weave/c_spec.py,0,0,0,0,0,0,0,0,0,0,291,0,0
v0.13.0,scipy/special/tests/test_basic.py,0,1,0,0,2,0,0,0,0,0,2100,22,0
v0.13.0,scipy/constants/codata.py,0,0,0,0,0,0,0,0,0,0,95,1,0
v0.13.0,scipy/stats/tests/test_stats.py,1,2,0,0,0,0,0,0,0,1,1849,15,5
v0.13.0,scipy/optimize/tests/test_linesearch.py,2,0,0,0,0,0,0,0,0,0,189,0,0
v0.13.0,scipy/sparse/coo.py,0,1,0,0,0,0,0,0,0,0,182,10,0
v0.13.0,scipy/_build_utils/__init__.py,0,0,0,0,0,0,0,0,0,0,1,0,0
v0.13.0,scipy/cluster/hierarchy.py,5,3,0,0,0,0,0,0,0,0,971,10,2
v0.13.0,scipy/optimize/nnls.py,0,0,0,0,0,0,0,0,0,0,21,0,0
v0.13.0,scipy/io/matlab/benchmarks/bench_structarr.py,0,0,0,0,0,0,0,0,0,0,37,0,0
v0.13.0,scipy/stats/setup.py,0,0,0,0,0,0,0,0,0,0,25,0,0
v0.13.0,scipy/lib/lapack/__init__.py,0,0,0,0,0,0,0,0,0,0,67,2,0
v0.13.0,scipy/misc/tests/test_common.py,0,0,0,0,0,0,0,0,0,0,65,7,0
v0.13.0,scipy/sparse/linalg/benchmarks/bench_expm.py,0,0,0,0,0,0,0,0,0,0,56,0,0
v0.13.0,scipy/io/matlab/__init__.py,0,0,0,0,0,0,0,0,0,0,8,0,0
v0.13.0,scipy/weave/examples/vtk_example.py,0,0,0,0,0,0,0,0,0,0,42,0,0
v0.13.0,doc/source/tutorial/stats/plots/kde_plot3.py,0,0,0,0,0,0,0,0,0,0,30,0,0
v0.13.0,scipy/fftpack/tests/test_pseudo_diffs.py,2,0,0,0,0,0,0,0,0,0,308,1,0
v0.13.0,scipy/io/arff/__init__.py,0,0,0,0,0,0,0,0,0,0,7,0,0
v0.13.0,scipy/linalg/_solvers.py,0,0,0,0,0,0,0,0,0,0,72,0,0
v0.13.0,scipy/weave/numpy_scalar_spec.py,0,0,0,0,0,0,0,0,0,0,9,0,0
v0.13.0,scipy/linalg/tests/test_decomp_polar.py,0,0,0,0,0,0,0,0,0,0,65,0,0
v0.13.0,scipy/weave/common_info.py,0,0,0,0,0,0,0,0,0,0,18,0,0
v0.13.0,scipy/interpolate/polyint.py,1,0,0,0,0,0,0,0,0,0,380,4,0
v0.13.0,scipy/io/matlab/tests/test_pathological.py,0,0,0,0,0,0,0,0,0,0,20,0,0
v0.13.0,scipy/weave/examples/vq.py,0,0,0,0,0,0,0,0,0,0,107,0,0
v0.13.0,setup.py,0,0,0,0,0,0,0,0,0,0,128,5,0
v0.13.0,scipy/fftpack/setup.py,0,0,0,0,0,0,0,0,0,0,33,0,0
v0.13.0,scipy/linalg/_decomp_polar.py,0,0,0,0,0,0,0,0,0,0,17,0,0
v0.13.0,scipy/special/setup.py,0,0,0,0,0,0,0,0,0,0,82,1,0
v0.13.0,scipy/optimize/_tstutils.py,0,0,0,0,0,0,0,0,0,0,32,0,0
v0.13.0,scipy/sparse/sparsetools/bsr.py,0,0,0,0,0,0,0,0,0,0,103,3,0
v0.13.0,scipy/lib/lapack/tests/test_lapack.py,0,0,0,0,0,0,0,0,0,0,64,0,0
v0.13.0,scipy/fftpack/realtransforms.py,0,0,0,0,0,0,0,0,0,0,117,1,0
v0.13.0,scipy/sparse/csgraph/tests/test_graph_laplacian.py,0,0,0,0,0,0,0,0,0,0,51,0,0
v0.13.0,scipy/special/lambertw.py,0,0,0,0,0,0,0,0,0,0,5,0,0
v0.13.0,scipy/constants/tests/test_constants.py,0,0,0,0,0,0,0,0,0,0,22,0,0
v0.13.0,scipy/stats/kde.py,0,0,0,0,0,0,0,0,0,0,141,2,0
v0.13.0,scipy/weave/build_tools.py,1,0,0,0,0,0,0,0,0,0,323,1,1
v0.13.0,scipy/special/tests/test_lambertw.py,0,1,0,0,0,0,0,0,0,0,72,0,0
v0.13.0,scipy/ndimage/measurements.py,1,1,0,0,0,0,0,0,0,0,361,5,0
v0.13.0,scipy/signal/_arraytools.py,0,0,0,0,0,0,0,0,0,0,60,0,0
v0.13.0,scipy/fftpack/tests/test_real_transforms.py,2,0,0,0,0,0,0,0,0,0,294,0,0
v0.13.0,scipy/weave/examples/array3d.py,0,0,0,0,0,0,0,0,0,0,36,0,0
v0.13.0,scipy/signal/setup.py,0,0,0,0,0,0,0,0,0,0,19,2,0
v0.13.0,scipy/io/harwell_boeing/__init__.py,0,0,0,0,0,0,0,0,0,0,2,0,0
v0.13.0,scipy/sparse/sparsetools/setup.py,0,0,0,0,0,0,0,0,0,0,15,1,0
v0.13.0,scipy/linalg/__init__.py,0,0,0,0,0,0,0,0,0,0,34,5,0
v0.13.0,scipy/optimize/tnc.py,0,0,0,0,0,0,0,0,0,0,148,2,1
v0.13.0,scipy/signal/tests/test_spectral.py,0,0,0,0,0,0,0,0,0,0,284,1,0
v0.13.0,scipy/signal/ltisys.py,0,0,0,0,0,0,0,0,0,0,418,1,0
v0.13.0,scipy/signal/tests/test_array_tools.py,0,0,0,0,0,0,0,0,0,0,70,0,0
v0.13.0,scipy/optimize/tests/test_anneal.py,0,0,0,0,0,0,1,0,0,0,60,0,0
v0.13.0,scipy/weave/base_info.py,0,0,0,0,0,0,0,0,0,0,121,0,0
v0.13.0,scipy/sparse/linalg/isolve/utils.py,0,0,0,0,0,0,0,0,0,0,70,0,0
v0.13.0,setupegg.py,0,0,0,0,0,0,0,0,0,0,3,0,0
v0.13.0,scipy/interpolate/interpnd_info.py,0,0,0,0,0,0,0,0,0,0,21,0,0
v0.13.0,scipy/weave/examples/dict_sort.py,0,0,0,0,0,0,0,0,0,0,67,0,0
v0.13.0,scipy/fftpack/__init__.py,0,0,0,0,0,0,0,0,0,0,22,0,0
v0.13.0,scipy/lib/_gcutils.py,0,0,0,0,0,0,0,0,0,0,31,0,0
v0.13.0,scipy/sparse/tests/test_sputils.py,0,0,0,0,0,0,0,0,0,0,54,2,0
v0.13.0,scipy/sparse/csgraph/tests/test_conversions.py,0,0,0,0,0,0,0,0,0,0,47,1,0
v0.13.0,scipy/interpolate/benchmarks/bench_memusage.py,0,0,0,0,0,0,0,0,0,0,72,1,0
v0.13.0,scipy/lib/six.py,0,0,0,0,0,0,0,0,0,0,277,0,0
v0.13.0,tools/win32/build_scripts/lib.py,0,0,0,0,0,0,0,0,0,0,58,0,0
v0.13.0,scipy/io/matlab/miobase.py,0,0,0,0,0,0,0,0,0,0,151,1,0
v0.13.0,scipy/weave/tests/test_catalog.py,0,0,0,0,0,0,0,0,0,0,396,4,0
v0.13.0,scipy/weave/weave_version.py,0,0,0,0,0,0,0,0,0,0,10,0,0
v0.13.0,scipy/sparse/setup.py,0,0,0,0,0,0,0,0,0,0,14,7,0
v0.13.0,scipy/weave/tests/test_blitz_tools.py,1,0,0,0,0,0,0,0,0,0,129,6,1
v0.13.0,scipy/sparse/linalg/isolve/__init__.py,0,0,0,0,0,0,0,0,0,0,11,0,0
v0.13.0,scipy/special/tests/test_spfun_stats.py,0,0,0,0,0,0,0,0,0,0,35,0,0
v0.13.0,scipy/io/tests/test_mmio.py,0,0,0,0,0,0,0,0,0,0,217,4,1
v0.13.0,scipy/lib/blas/setup.py,0,0,0,0,0,0,0,0,0,0,45,0,0
v0.13.0,scipy/weave/tests/test_standard_array_spec.py,0,0,0,0,0,0,0,0,0,0,22,1,0
v0.13.0,scipy/sparse/linalg/isolve/tests/test_lsqr.py,0,0,0,0,0,0,0,0,0,0,60,0,0
v0.13.0,scipy/constants/tests/test_codata.py,0,0,0,0,0,0,0,0,0,0,47,0,0
v0.13.0,scipy/linalg/_testutils.py,0,0,0,0,0,0,0,0,0,0,42,0,0
v0.13.0,scipy/interpolate/tests/test_interpnd.py,0,0,0,0,0,0,0,0,0,0,174,0,0
v0.13.0,scipy/linalg/clapack.py,0,0,0,0,0,0,0,0,0,0,10,0,0
v0.13.0,scipy/optimize/cobyla.py,0,0,0,0,0,0,0,0,0,0,87,2,1
v0.13.0,scipy/sparse/sparsetools/__init__.py,0,0,0,0,0,0,0,0,0,0,8,1,0
v0.13.0,scipy/sparse/linalg/isolve/iterative/test.py,2,0,0,0,0,0,0,0,0,0,65,0,0
v0.13.0,scipy/interpolate/tests/test_regression.py,0,0,0,0,0,0,0,0,0,0,13,0,0
v0.13.0,scipy/signal/cont2discrete.py,0,0,0,0,0,0,0,0,0,0,50,0,0
v0.13.0,scipy/linalg/_matfuncs_sqrtm.py,0,0,0,0,0,0,0,0,0,0,91,2,0
v0.13.0,scipy/stats/tests/test_morestats.py,0,0,0,0,0,0,0,0,0,0,387,11,1
v0.13.0,scipy/spatial/kdtree.py,2,0,0,0,0,0,0,0,0,0,448,0,0
v0.13.0,scipy/sparse/linalg/isolve/lgmres.py,0,1,0,0,0,0,0,0,0,0,98,0,0
v0.13.0,scipy/stats/tests/test_discrete_basic.py,5,0,0,0,0,0,0,0,0,0,218,11,0
v0.13.0,scipy/cluster/tests/test_hierarchy.py,0,0,0,0,0,0,0,0,0,0,1181,7,1
v0.13.0,scipy/lib/decorator.py,1,0,0,0,0,0,0,0,0,0,160,0,0
v0.13.0,scipy/weave/swigptr.py,0,0,0,0,0,0,0,0,0,0,3,0,0
v0.13.0,scipy/linalg/tests/test_solvers.py,2,0,0,0,0,0,0,0,0,0,129,0,0
v0.13.0,scipy/signal/tests/test_filter_design.py,0,0,0,0,0,0,0,0,0,0,86,14,1
v0.13.0,scipy/optimize/linesearch.py,5,1,0,0,0,0,0,0,0,0,295,0,0
v0.13.0,tools/osx/install_and_test.py,0,0,0,0,0,0,0,0,0,0,32,0,0
v0.13.0,scipy/lib/lapack/tests/test_esv.py,0,0,0,0,0,0,0,0,0,0,103,1,0
v0.13.0,scipy/sparse/dok.py,0,2,0,0,0,0,0,0,0,0,335,18,1
v0.13.0,scipy/linalg/tests/test_build.py,0,0,0,0,0,0,0,0,0,0,38,1,0
v0.13.0,scipy/spatial/benchmarks/bench_ckdtree.py,0,0,0,0,0,0,0,0,0,0,146,1,0
v0.13.0,scipy/weave/_dumb_shelve.py,0,0,0,0,0,0,0,0,0,0,30,0,0
v0.13.0,scipy/spatial/tests/test_distance.py,0,0,0,0,1,0,0,0,0,0,1450,1,0
v0.13.0,scipy/ndimage/tests/test_regression.py,0,0,0,0,0,0,0,0,0,0,28,2,1
v0.13.0,scipy/signal/wavelets.py,0,1,0,0,0,0,0,0,0,0,139,2,0
v0.13.0,scipy/weave/tests/test_size_check.py,0,0,0,0,1,0,0,0,0,0,351,1,0
v0.13.0,scipy/spatial/tests/test_qhull.py,0,0,0,0,0,0,0,0,0,1,498,2,0
v0.13.0,scipy/linalg/_expm_frechet.py,0,0,0,0,0,0,0,0,0,0,159,3,0
v0.13.0,doc/source/tutorial/stats/plots/kde_plot5.py,0,0,0,0,0,0,0,0,0,0,26,0,0
v0.13.0,scipy/sparse/csgraph/tests/test_graph_components.py,0,0,0,0,0,0,0,0,0,0,25,0,0
v0.13.0,scipy/signal/fir_filter_design.py,0,0,0,0,0,0,0,0,0,0,133,0,0
v0.13.0,scipy/io/matlab/tests/test_mio5_utils.py,0,0,0,0,0,0,0,0,0,0,146,1,0
v0.13.0,scipy/stats/_support.py,0,0,0,0,0,0,0,0,0,0,140,0,0
v0.13.0,scipy/io/tests/test_fortran.py,0,0,0,0,0,0,0,0,0,0,51,0,0
v0.13.0,scipy/_build_utils/_fortran.py,0,0,0,0,0,0,0,0,0,0,90,2,0
v0.13.0,scipy/weave/ast_tools.py,0,0,0,0,0,0,0,0,0,0,112,1,0
v0.13.0,scipy/interpolate/rbf.py,0,0,0,0,0,0,0,0,0,0,101,0,0
v0.13.0,scipy/spatial/__init__.py,0,0,0,0,0,0,0,0,0,0,12,0,0
v0.13.0,scipy/special/tests/test_orthogonal.py,0,0,0,0,0,0,0,0,0,0,216,1,0
v0.13.0,scipy/ndimage/filters.py,5,1,0,0,0,0,0,0,0,0,520,3,0
v0.13.0,scipy/linalg/_matfuncs_inv_ssq.py,0,1,0,0,0,0,0,0,0,0,370,5,0
v0.13.0,scipy/lib/lapack/setup.py,0,0,0,0,0,0,0,0,0,0,44,0,0
v0.13.0,scipy/misc/pilutil.py,0,1,0,0,0,0,0,0,0,0,179,3,0
v0.13.0,scipy/io/arff/setup.py,0,0,0,0,0,0,0,0,0,0,9,0,0
v0.13.0,scipy/cluster/tests/vq_test.py,0,0,0,0,0,0,0,0,0,0,31,1,0
v0.13.0,scipy/sparse/linalg/isolve/iterative.py,0,4,0,0,0,0,0,0,0,0,385,3,0
v0.13.0,scipy/linalg/tests/test_matfuncs.py,0,0,0,0,0,0,0,0,0,0,487,15,0
v0.13.0,scipy/io/matlab/setup.py,0,0,0,0,0,0,0,0,0,0,13,0,0
v0.13.0,scipy/weave/__init__.py,0,0,0,0,0,0,0,0,0,0,19,1,0
v0.13.0,scipy/linalg/tests/test_interpolative.py,0,1,0,0,0,0,0,0,0,0,165,1,0
v0.13.0,scipy/sparse/csgraph/_components.py,0,0,0,0,0,0,0,0,0,0,21,1,0
v0.13.0,scipy/optimize/slsqp.py,1,1,0,0,0,0,0,0,0,0,207,5,2
v0.13.0,doc/source/conf.py,0,0,0,0,0,0,0,0,0,0,165,0,0
v0.13.0,scipy/weave/blitz_spec.py,0,0,0,0,0,0,0,0,0,0,47,0,0
v0.13.0,scipy/linalg/decomp_lu.py,0,0,0,0,0,0,0,0,0,0,56,0,0
v0.13.0,scipy/sparse/sparsetools/csr.py,0,0,0,0,0,0,0,0,0,0,130,6,0
v0.13.0,scipy/optimize/minpack.py,2,2,0,0,0,0,0,0,0,0,258,6,2
v0.13.0,scipy/ndimage/tests/test_io.py,0,0,0,0,0,0,0,0,0,0,17,3,0
v0.13.0,scipy/sparse/linalg/_onenormest.py,0,1,0,0,0,0,0,0,0,0,178,2,0
v0.13.0,scipy/weave/converters.py,0,0,0,0,0,0,0,0,0,0,38,2,0
v0.13.0,scipy/optimize/tests/test_minpack.py,1,0,0,0,0,0,0,0,0,0,277,6,1
v0.13.0,scipy/weave/examples/binary_search.py,0,1,0,0,0,0,0,0,0,0,107,1,0
v0.13.0,tools/win32/detect_cpu_extensions_wine.py,0,0,0,0,0,0,0,0,0,0,104,1,0
v0.13.0,scipy/io/matlab/tests/test_mio.py,0,0,0,0,0,0,0,0,0,5,781,3,0
v0.13.0,scipy/weave/_dumbdbm_patched.py,0,0,0,0,0,0,0,0,0,0,106,0,0
v0.13.0,scipy/signal/_peak_finding.py,0,0,0,0,0,0,0,0,0,0,123,3,0
v0.13.0,scipy/stats/tests/test_contingency.py,0,0,0,0,0,0,0,0,0,0,107,0,0
v0.13.0,scipy/optimize/tests/test_cobyla.py,0,0,0,0,0,0,0,0,0,0,34,1,0
v0.13.0,scipy/linalg/special_matrices.py,0,0,0,0,0,0,0,0,0,0,170,3,0
v0.13.0,scipy/interpolate/tests/test_polyint.py,0,0,0,0,0,0,0,0,1,0,293,5,0
v0.13.0,scipy/sparse/sparsetools/csgraph.py,0,0,0,0,0,0,0,0,0,0,55,2,0
v0.13.0,scipy/__init__.py,0,0,0,0,0,0,0,0,0,0,42,3,0
v0.13.0,scipy/constants/constants.py,0,0,0,0,0,0,0,0,0,0,142,1,0
v0.13.0,scipy/stats/contingency.py,0,0,0,0,0,0,0,0,0,0,44,1,0
v0.13.0,scipy/signal/tests/test_fir_filter_design.py,0,0,0,0,0,0,0,0,0,1,262,0,0
v0.13.0,scipy/sparse/linalg/eigen/lobpcg/setup.py,0,0,0,0,0,0,0,0,0,0,10,1,0
v0.13.0,scipy/optimize/_root.py,0,0,0,0,0,0,0,0,0,0,101,1,1
v0.13.0,scipy/sparse/sparsetools/coo.py,0,0,0,0,0,0,0,0,0,0,67,2,0
v0.13.0,scipy/sparse/linalg/eigen/arpack/tests/test_arpack.py,1,1,0,0,0,0,0,0,0,0,435,0,0
v0.13.0,scipy/optimize/_trustregion_dogleg.py,0,0,0,0,0,0,0,0,0,0,49,0,0
v0.13.0,scipy/weave/examples/wx_speed.py,0,1,0,0,0,0,0,0,0,0,117,1,0
v0.13.0,scipy/weave/base_spec.py,0,0,0,0,0,0,0,0,0,0,64,0,0
v0.13.0,scipy/fftpack/fftpack_version.py,0,0,0,0,0,0,0,0,0,0,5,0,0
v0.13.0,scipy/linalg/misc.py,0,0,0,0,0,0,0,0,0,0,22,0,0
v0.13.0,scipy/linalg/benchmarks/bench_sqrtm.py,0,0,0,0,0,0,0,0,0,0,37,0,0
v0.13.0,scipy/sparse/linalg/isolve/lsmr.py,0,1,0,0,0,0,0,0,0,0,185,0,0
v0.13.0,scipy/linalg/tests/test_decomp_cholesky.py,0,0,0,0,0,0,0,0,0,0,151,0,0
v0.13.0,scipy/weave/tests/test_scxx_object.py,0,0,0,0,0,0,0,0,0,0,691,2,0
v0.13.0,scipy/weave/platform_info.py,0,0,0,0,0,0,0,0,0,0,141,1,1
v0.13.0,scipy/special/_testutils.py,0,1,0,0,0,0,0,0,0,0,192,2,0
v0.13.0,scipy/io/setup.py,0,0,0,0,0,0,0,0,0,0,12,0,0
v0.13.0,scipy/linalg/benchmarks/bench_decom.py,0,0,0,0,0,0,0,0,0,0,58,0,0
v0.13.0,scipy/linalg/basic.py,0,0,0,0,0,0,0,0,0,0,228,2,0
v0.13.0,scipy/sparse/linalg/isolve/setup.py,0,0,0,0,0,0,0,0,0,0,33,1,0
v0.13.0,scipy/ndimage/morphology.py,1,3,0,0,0,0,0,0,0,0,485,1,0
v0.13.0,scipy/sparse/linalg/__init__.py,0,0,0,0,0,0,0,0,0,0,13,2,0
v0.13.0,scipy/stats/tests/test_fit.py,0,0,0,0,0,0,0,0,0,0,64,1,0
v0.13.0,scipy/weave/examples/py_none.py,0,0,0,0,0,0,0,0,0,0,22,0,0
v0.13.0,scipy/misc/tests/test_pilutil.py,0,0,0,0,0,0,0,0,0,0,55,3,0
v0.13.0,scipy/optimize/tests/test_tnc.py,0,0,0,0,1,0,0,0,0,9,229,0,0
v0.13.0,scipy/weave/examples/object.py,0,0,0,0,0,0,0,0,0,0,19,0,0
v0.13.0,scipy/odr/__init__.py,0,0,0,0,0,0,0,0,0,0,8,0,0
v0.13.0,scipy/weave/tests/test_slice_handler.py,0,0,0,0,0,0,0,0,0,0,134,2,0
v0.13.0,scipy/optimize/_trustregion_ncg.py,0,0,0,0,0,0,0,0,0,0,58,0,0
v0.13.0,scipy/linalg/tests/test_decomp.py,2,1,0,0,1,0,0,0,0,0,1589,3,0
v0.13.0,scipy/weave/examples/support_code_example.py,0,0,0,0,0,0,0,0,0,0,10,0,0
v0.13.0,scipy/special/utils/makenpz.py,0,0,0,0,0,0,0,0,0,0,57,0,0
v0.13.0,scipy/ndimage/tests/test_datatypes.py,0,0,0,0,0,0,0,0,0,0,44,0,0
v0.13.0,scipy/weave/examples/wx_example.py,0,0,0,0,0,0,0,0,0,0,146,0,0
v0.13.0,scipy/linalg/fblas.py,0,0,0,0,0,0,0,0,0,0,7,0,0
v0.13.0,scipy/stats/morestats.py,0,0,0,0,0,0,0,0,0,0,620,19,1
v0.13.0,scipy/linalg/decomp_qr.py,0,0,0,0,0,0,0,0,0,0,191,2,0
v0.13.0,scipy/io/matlab/tests/test_miobase.py,0,0,0,0,0,0,0,0,0,0,20,1,0
v0.13.0,scipy/optimize/lbfgsb.py,0,1,0,0,0,0,0,0,0,0,183,2,1
v0.13.0,scipy/weave/tests/scxx_timings.py,0,0,0,0,0,0,0,0,0,0,79,2,0
v0.13.0,scipy/sparse/linalg/eigen/lobpcg/__init__.py,0,0,0,0,0,0,0,0,0,0,5,3,0
v0.13.0,scipy/stats/_tukeylambda_stats.py,0,0,0,0,0,0,0,0,0,0,63,0,0
v0.13.0,scipy/weave/examples/increment_example.py,0,0,0,0,0,0,0,0,0,0,24,1,0
v0.13.0,scipy/sparse/linalg/isolve/lsqr.py,0,1,0,0,0,0,0,0,0,0,211,0,0
v0.13.0,scipy/integrate/quadrature.py,1,0,0,0,0,0,0,0,0,0,332,5,0
v0.13.0,scipy/weave/examples/ramp2.py,0,0,0,0,0,0,0,0,0,0,41,0,0
v0.13.0,scipy/interpolate/tests/test_fitpack.py,0,0,0,0,0,0,0,0,0,0,281,1,0
v0.13.0,scipy/spatial/tests/test__plotutils.py,0,0,0,0,0,0,0,0,0,0,35,0,0
v0.13.0,scipy/optimize/tests/test_optimize.py,0,0,0,0,0,0,0,0,0,0,496,6,0
v0.13.0,scipy/sparse/tests/test_csr.py,0,0,0,0,0,0,0,0,0,0,46,0,0
v0.13.0,scipy/weave/cpp_namespace_spec.py,0,0,0,0,0,0,0,0,0,0,55,0,0
v0.13.0,scipy/stats/mstats_basic.py,4,0,0,0,0,0,0,0,0,0,976,27,3
v0.13.0,scipy/weave/tests/test_build_tools.py,0,0,0,0,0,0,0,0,0,0,61,1,0
v0.13.0,scipy/sparse/csgraph/tests/test_spanning_tree.py,0,0,0,0,0,0,0,0,0,0,43,0,0
v0.13.0,scipy/sparse/linalg/dsolve/umfpack/umfpack.py,0,0,0,0,0,0,0,0,0,0,446,1,1
v0.13.0,scipy/signal/tests/test_dltisys.py,0,0,0,0,0,0,0,0,0,0,191,0,0
v0.13.0,scipy/linalg/blas.py,1,0,0,0,0,0,0,0,0,0,74,5,0
v0.13.0,scipy/linalg/lapack.py,0,0,0,0,0,0,0,0,0,0,25,5,0
v0.13.0,scipy/weave/tests/test_scxx_sequence.py,0,0,0,0,0,0,0,0,0,0,292,2,0
v0.13.0,scipy/sparse/dia.py,0,0,0,0,0,0,0,0,0,0,117,9,0
v0.13.0,scipy/optimize/setup.py,0,0,0,0,0,0,0,0,0,0,48,0,0
v0.13.0,scipy/misc/__init__.py,0,0,0,0,0,0,0,0,0,0,23,6,0
v0.13.0,scipy/weave/examples/cast_copy_transpose.py,0,0,0,0,0,0,0,0,0,0,108,0,0
v0.13.0,scipy/optimize/tests/test_nonlin.py,1,0,0,0,0,0,0,0,0,0,298,2,0
v0.13.0,scipy/linalg/tests/test_fblas.py,0,0,0,0,0,0,0,0,0,0,363,0,0
v0.13.0,scipy/stats/tests/test_distributions.py,0,0,0,0,0,0,0,0,0,0,1180,23,4
v0.13.0,scipy/weave/examples/fibonacci.py,0,0,0,0,0,0,0,0,0,0,82,0,0
v0.13.0,scipy/sparse/linalg/isolve/tests/test_lgmres.py,0,0,0,0,0,0,0,0,0,0,57,0,0
v0.13.0,scipy/sparse/linalg/dsolve/umfpack/__init__.py,0,0,0,0,0,0,0,0,0,0,6,1,1
v0.13.0,scipy/misc/setup.py,0,0,0,0,0,0,0,0,0,0,10,0,0
v0.13.0,scipy/lib/blas/scons_support.py,0,0,0,0,0,0,0,0,0,0,20,0,0
v0.13.0,scipy/special/tests/test_mpmath.py,0,0,0,0,1,0,1,0,0,0,1105,3,0
v0.13.0,scipy/weave/catalog.py,0,0,0,0,0,0,0,0,0,0,449,3,2
v0.13.0,scipy/signal/tests/test_windows.py,0,0,0,0,0,0,0,0,0,0,84,3,0
v0.13.0,scipy/constants/setup.py,0,0,0,0,0,0,0,0,0,0,9,0,0
v0.13.0,scipy/sparse/lil.py,1,0,0,0,0,0,0,0,0,0,234,15,1
v0.13.0,scipy/sparse/tests/test_construct.py,0,0,0,0,0,0,0,0,0,16,287,2,0
v0.13.0,scipy/io/matlab/tests/test_mio_funcs.py,0,0,0,0,0,0,0,0,0,0,46,0,0
v0.13.0,scipy/linalg/decomp_schur.py,0,0,0,0,0,0,0,0,0,0,122,1,0
v0.13.0,scipy/linalg/interpolative.py,0,0,0,0,0,0,0,0,0,0,172,1,0
v0.13.0,scipy/fftpack/benchmarks/bench_pseudo_diffs.py,0,0,0,0,0,0,0,0,0,0,154,0,0
v0.13.0,scipy/sparse/linalg/eigen/arpack/setup.py,0,0,0,0,0,0,0,0,0,0,27,1,0
v0.13.0,scipy/stats/tests/test_kdeoth.py,0,0,0,0,0,0,0,0,0,0,115,2,0
v0.13.0,scipy/lib/blas/tests/test_blas.py,0,0,0,0,0,0,0,0,0,0,205,0,0
v0.13.0,scipy/sparse/bsr.py,0,1,0,0,0,0,0,0,0,0,285,10,0
v0.13.0,scipy/odr/models.py,0,0,0,0,0,0,0,0,0,0,101,0,0
v0.13.0,scipy/constants/__init__.py,0,0,0,0,0,0,0,0,1,0,17,0,0
v0.13.0,scipy/cluster/setup.py,0,0,0,0,0,0,0,0,0,0,28,0,0
v0.13.0,scipy/signal/__init__.py,0,0,0,0,0,0,0,0,0,0,19,4,0
v0.13.0,scipy/odr/odrpack.py,0,2,0,0,0,1,0,0,0,0,404,0,0
v0.13.0,scipy/special/generate_ufuncs.py,3,2,0,0,0,0,0,0,0,0,389,4,0
v0.13.0,scipy/sparse/extract.py,0,0,0,0,0,0,0,0,0,0,27,1,0
v0.13.0,scipy/interpolate/tests/test_fitpack2.py,0,0,0,0,0,0,0,0,0,0,245,2,0
v0.13.0,pavement.py,0,0,0,0,0,0,0,0,0,0,406,6,0
v0.13.0,scipy/weave/swig2_spec.py,0,0,0,0,0,0,0,0,0,0,125,1,0
v0.13.0,scipy/interpolate/ndgriddata.py,0,0,0,0,0,0,0,0,0,0,51,2,0
v0.13.0,scipy/fftpack/tests/gen_fftw_ref.py,0,0,0,0,0,0,0,0,0,0,42,0,0
v0.13.0,scipy/sparse/linalg/matfuncs.py,0,0,0,0,0,0,0,0,0,0,259,4,0
v0.13.0,scipy/linalg/tests/test_lapack.py,0,0,0,0,0,0,0,0,0,0,82,1,0
v0.13.0,scipy/ndimage/setup.py,0,0,0,0,0,0,0,0,0,0,19,0,0
v0.13.0,scipy/linalg/matfuncs.py,0,0,0,0,0,0,0,0,0,0,186,6,0
v0.13.0,scipy/sparse/linalg/interface.py,0,0,0,0,0,0,0,0,0,0,214,0,0
